14906
1 1 1 0 1 1 0 1 1 1 1 0 0 1 0 1 1 0 1 1 1 1 1 0 1 1 0 1 1 1
21 0 7 7 20 8 13 18 21 9 21 13 24 0 16 21 27 8 21 5 21 27 24 7 5 22 27 29 15 13 4 13 10 7 4 21 28 8 25 5 25 19 10 9 21 24 20 19 5 9 10 13 8 9 13 21 20 8 13 25 22 13 8 7 13 4 2 22 9 4 8 13 18 21 5 10 7 16 5 13 8 2 10 9 1 21 20 8 16 19 2 13 8 10 4 20 27 24 21 16 0 24 22 10 4 24 20 8 5 13 22 20 8 5 9 22 27 8 7 9 28 20 8 5 9 21 20 8 13 5 10 13 16 7 7 21 27 29 25 25 8 19 15 9 4 21 27 8 8 25